benchmarks_CP/INST_64x64/50/inst64x64_50_24.dzn
S=8;
start=[|
-1,	-1,	12,	63,	-1,	-1,	7,	18,	28,	39,	1,	-1,	13,	-1,	-1,	-1,	46,	-1,	42,	34,	2,	29,	-1,	60,	41,	-1,	32,	-1,	43,	-1,	25,	-1,	40,	55,	-1,	3,	22,	-1,	-1,	-1,	-1,	49,	37,	53,	-1,	64,	33,	-1,	-1,	-1,	24,	-1,	-1,	-1,	58,	9,	31,	-1,	48,	14,	-1,	-1,	-1,	-1|
-1,	38,	-1,	32,	27,	33,	36,	-1,	15,	-1,	-1,	-1,	6,	60,	-1,	-1,	56,	62,	11,	24,	-1,	14,	37,	51,	-1,	-1,	-1,	48,	2,	-1,	-1,	58,	-1,	64,	30,	-1,	53,	-1,	-1,	31,	-1,	-1,	23,	-1,	-1,	-1,	4,	-1,	59,	-1,	-1,	-1,	-1,	-1,	47,	28,	55,	12,	-1,	41,	20,	-1,	-1,	63|
6,	-1,	60,	-1,	53,	-1,	56,	-1,	36,	14,	-1,	46,	-1,	-1,	51,	4,	-1,	-1,	-1,	-1,	52,	-1,	20,	-1,	22,	55,	-1,	1,	-1,	59,	-1,	27,	-1,	-1,	50,	-1,	-1,	-1,	39,	24,	-1,	-1,	48,	-1,	-1,	34,	62,	-1,	43,	-1,	40,	-1,	-1,	-1,	-1,	30,	-1,	26,	-1,	37,	-1,	61,	38,	-1|
17,	-1,	-1,	-1,	37,	-1,	64,	11,	5,	-1,	-1,	19,	-1,	16,	22,	-1,	8,	-1,	55,	-1,	49,	28,	-1,	-1,	20,	-1,	14,	3,	-1,	-1,	-1,	57,	-1,	42,	58,	34,	-1,	-1,	-1,	-1,	-1,	47,	-1,	44,	-1,	6,	24,	41,	25,	-1,	-1,	50,	46,	-1,	36,	38,	18,	43,	-1,	-1,	-1,	-1,	33,	29|
-1,	55,	-1,	40,	3,	47,	-1,	25,	30,	-1,	-1,	-1,	-1,	9,	-1,	52,	-1,	41,	64,	19,	-1,	-1,	-1,	57,	42,	53,	-1,	62,	-1,	21,	-1,	-1,	-1,	28,	-1,	-1,	51,	49,	-1,	-1,	-1,	-1,	54,	63,	2,	35,	-1,	20,	48,	-1,	-1,	-1,	-1,	-1,	-1,	10,	-1,	-1,	1,	-1,	-1,	-1,	-1,	39|
8,	57,	21,	-1,	-1,	-1,	31,	-1,	55,	10,	-1,	-1,	47,	-1,	11,	32,	23,	-1,	61,	7,	43,	-1,	-1,	63,	-1,	-1,	13,	-1,	39,	9,	-1,	-1,	-1,	45,	-1,	6,	25,	48,	-1,	20,	46,	56,	5,	-1,	-1,	58,	40,	-1,	-1,	62,	-1,	2,	-1,	-1,	44,	14,	28,	59,	-1,	-1,	64,	16,	-1,	53|
-1,	49,	-1,	45,	-1,	26,	-1,	14,	37,	-1,	27,	-1,	-1,	-1,	-1,	-1,	-1,	-1,	47,	-1,	21,	25,	-1,	-1,	-1,	60,	31,	6,	24,	-1,	51,	-1,	-1,	1,	57,	-1,	54,	-1,	-1,	5,	-1,	12,	18,	8,	59,	39,	32,	38,	63,	20,	-1,	-1,	55,	-1,	-1,	29,	40,	-1,	11,	-1,	22,	30,	-1,	34|
20,	4,	46,	-1,	28,	-1,	-1,	62,	2,	7,	48,	25,	-1,	-1,	53,	-1,	22,	1,	58,	33,	-1,	17,	-1,	30,	-1,	40,	-1,	23,	-1,	-1,	-1,	56,	8,	-1,	14,	12,	37,	-1,	19,	-1,	-1,	-1,	51,	43,	-1,	3,	36,	-1,	61,	31,	11,	-1,	-1,	39,	-1,	21,	-1,	-1,	-1,	-1,	-1,	6,	10,	32|
-1,	36,	19,	-1,	17,	-1,	-1,	-1,	39,	52,	-1,	1,	30,	-1,	5,	55,	58,	51,	20,	47,	8,	10,	-1,	-1,	-1,	2,	-1,	-1,	-1,	-1,	-1,	-1,	62,	48,	-1,	-1,	-1,	28,	35,	-1,	26,	-1,	56,	9,	53,	-1,	-1,	-1,	54,	-1,	16,	6,	-1,	44,	-1,	-1,	-1,	14,	-1,	11,	-1,	22,	32,	-1|
4,	-1,	45,	-1,	12,	10,	-1,	41,	-1,	-1,	-1,	7,	43,	53,	60,	22,	-1,	63,	-1,	52,	23,	42,	-1,	32,	24,	-1,	-1,	-1,	-1,	-1,	20,	48,	-1,	57,	34,	-1,	-1,	50,	-1,	-1,	-1,	58,	-1,	-1,	-1,	-1,	-1,	3,	47,	-1,	-1,	9,	37,	51,	-1,	-1,	-1,	17,	-1,	-1,	-1,	13,	27,	2|
-1,	-1,	-1,	-1,	54,	-1,	-1,	-1,	20,	59,	9,	-1,	64,	41,	-1,	-1,	16,	35,	62,	-1,	-1,	-1,	-1,	-1,	6,	19,	22,	-1,	-1,	-1,	38,	32,	-1,	-1,	-1,	-1,	-1,	29,	-1,	58,	-1,	61,	47,	-1,	-1,	43,	-1,	12,	13,	7,	45,	56,	-1,	-1,	-1,	40,	36,	37,	-1,	8,	-1,	-1,	-1,	46|
-1,	3,	-1,	48,	-1,	8,	-1,	58,	13,	-1,	11,	-1,	-1,	-1,	-1,	-1,	-1,	-1,	-1,	-1,	-1,	24,	57,	34,	63,	-1,	39,	-1,	56,	36,	9,	-1,	-1,	14,	16,	37,	-1,	54,	-1,	52,	-1,	-1,	15,	1,	30,	-1,	49,	45,	41,	22,	-1,	-1,	17,	43,	19,	-1,	25,	-1,	38,	-1,	7,	47,	62,	-1|
-1,	-1,	-1,	-1,	63,	23,	-1,	-1,	45,	-1,	58,	-1,	61,	44,	19,	48,	-1,	49,	-1,	-1,	-1,	1,	17,	-1,	-1,	37,	27,	-1,	-1,	-1,	8,	-1,	-1,	-1,	-1,	-1,	33,	30,	2,	-1,	-1,	-1,	62,	4,	-1,	31,	55,	-1,	53,	60,	5,	-1,	-1,	36,	-1,	26,	51,	-1,	-1,	39,	-1,	-1,	-1,	-1|
-1,	-1,	59,	42,	13,	53,	-1,	51,	3,	16,	62,	-1,	-1,	-1,	-1,	-1,	-1,	-1,	48,	12,	9,	43,	-1,	-1,	46,	-1,	-1,	-1,	-1,	31,	-1,	47,	-1,	17,	55,	18,	32,	-1,	-1,	60,	50,	-1,	-1,	6,	10,	-1,	2,	-1,	64,	-1,	-1,	-1,	24,	11,	-1,	52,	49,	58,	35,	-1,	63,	-1,	45,	-1|
-1,	24,	-1,	-1,	56,	-1,	-1,	43,	32,	-1,	-1,	23,	33,	12,	46,	14,	36,	-1,	15,	38,	-1,	-1,	-1,	7,	11,	-1,	-1,	55,	-1,	-1,	50,	26,	-1,	-1,	47,	64,	20,	45,	-1,	-1,	-1,	-1,	-1,	35,	22,	19,	-1,	-1,	-1,	30,	57,	8,	-1,	58,	-1,	3,	10,	-1,	59,	21,	60,	-1,	29,	44|
25,	44,	-1,	-1,	-1,	30,	32,	-1,	35,	-1,	-1,	37,	-1,	15,	-1,	-1,	3,	11,	-1,	-1,	13,	60,	-1,	53,	-1,	-1,	-1,	-1,	-1,	-1,	-1,	-1,	-1,	-1,	22,	-1,	43,	-1,	8,	21,	-1,	-1,	63,	36,	-1,	59,	-1,	7,	-1,	49,	55,	61,	-1,	14,	-1,	-1,	1,	-1,	-1,	33,	-1,	12,	54,	-1|
-1,	41,	-1,	-1,	-1,	-1,	-1,	-1,	-1,	-1,	5,	-1,	11,	63,	-1,	50,	2,	36,	-1,	17,	15,	57,	-1,	12,	-1,	-1,	28,	21,	55,	46,	61,	-1,	56,	-1,	39,	-1,	-1,	26,	-1,	3,	37,	-1,	-1,	-1,	-1,	-1,	30,	22,	29,	33,	31,	-1,	14,	35,	-1,	-1,	-1,	-1,	18,	-1,	-1,	53,	-1,	-1|
47,	46,	-1,	4,	60,	-1,	-1,	-1,	-1,	24,	-1,	53,	-1,	-1,	35,	-1,	64,	8,	51,	-1,	-1,	-1,	58,	-1,	5,	57,	43,	-1,	-1,	-1,	-1,	20,	9,	-1,	29,	7,	-1,	-1,	55,	-1,	-1,	28,	36,	2,	21,	14,	-1,	6,	39,	52,	-1,	-1,	-1,	18,	-1,	-1,	-1,	56,	3,	38,	26,	27,	-1,	-1|
21,	-1,	39,	-1,	32,	-1,	-1,	-1,	48,	19,	55,	51,	-1,	-1,	-1,	36,	-1,	25,	-1,	-1,	50,	-1,	56,	9,	-1,	-1,	11,	-1,	-1,	17,	52,	-1,	46,	59,	-1,	45,	35,	-1,	38,	-1,	-1,	5,	-1,	-1,	-1,	20,	3,	16,	-1,	26,	61,	28,	-1,	22,	-1,	-1,	-1,	1,	33,	63,	41,	42,	-1,	14|
-1,	-1,	63,	-1,	55,	5,	-1,	-1,	1,	-1,	28,	45,	32,	-1,	-1,	30,	-1,	46,	59,	-1,	-1,	53,	-1,	-1,	-1,	7,	-1,	-1,	-1,	-1,	18,	-1,	-1,	-1,	-1,	19,	-1,	-1,	37,	47,	-1,	27,	-1,	56,	-1,	38,	43,	62,	-1,	44,	10,	21,	23,	15,	-1,	4,	-1,	20,	39,	-1,	-1,	-1,	-1,	-1|
-1,	59,	2,	3,	-1,	-1,	10,	36,	-1,	-1,	40,	-1,	-1,	-1,	15,	-1,	39,	-1,	38,	35,	-1,	26,	-1,	18,	-1,	-1,	-1,	-1,	-1,	-1,	24,	-1,	21,	-1,	-1,	23,	48,	-1,	49,	8,	54,	17,	-1,	46,	12,	-1,	13,	55,	-1,	-1,	60,	63,	-1,	50,	53,	32,	30,	-1,	16,	4,	-1,	-1,	28,	-1|
22,	-1,	58,	54,	50,	11,	-1,	6,	-1,	-1,	-1,	-1,	-1,	18,	26,	39,	1,	28,	-1,	40,	32,	16,	-1,	10,	-1,	-1,	-1,	-1,	37,	-1,	-1,	38,	-1,	-1,	42,	-1,	27,	5,	36,	-1,	-1,	-1,	-1,	61,	-1,	-1,	9,	-1,	-1,	2,	20,	17,	62,	-1,	46,	-1,	34,	44,	21,	31,	-1,	51,	-1,	23|
-1,	26,	-1,	25,	14,	9,	-1,	-1,	-1,	-1,	-1,	-1,	-1,	-1,	57,	44,	-1,	-1,	43,	5,	61,	34,	-1,	-1,	-1,	-1,	-1,	10,	-1,	-1,	-1,	22,	64,	11,	2,	32,	-1,	60,	18,	28,	15,	39,	1,	19,	-1,	-1,	-1,	49,	-1,	-1,	-1,	-1,	-1,	-1,	56,	-1,	-1,	-1,	-1,	7,	-1,	-1,	55,	8|
43,	-1,	-1,	56,	34,	-1,	-1,	-1,	21,	38,	-1,	52,	-1,	-1,	-1,	-1,	29,	-1,	7,	-1,	-1,	-1,	30,	41,	-1,	39,	-1,	-1,	13,	-1,	3,	-1,	-1,	-1,	20,	15,	-1,	-1,	-1,	6,	23,	-1,	11,	40,	-1,	-1,	-1,	-1,	-1,	55,	42,	16,	-1,	-1,	-1,	-1,	2,	57,	25,	54,	48,	10,	-1,	12|
26,	-1,	16,	52,	21,	46,	-1,	57,	17,	53,	54,	44,	-1,	50,	-1,	-1,	12,	27,	-1,	58,	-1,	-1,	2,	23,	-1,	4,	9,	15,	8,	-1,	-1,	-1,	59,	-1,	-1,	14,	-1,	33,	-1,	30,	-1,	41,	-1,	31,	28,	10,	47,	-1,	-1,	63,	32,	-1,	-1,	56,	20,	-1,	-1,	-1,	29,	-1,	37,	-1,	1,	13|
-1,	-1,	9,	-1,	29,	42,	-1,	3,	-1,	-1,	36,	-1,	23,	-1,	25,	8,	-1,	38,	-1,	-1,	5,	51,	26,	-1,	60,	-1,	-1,	-1,	12,	-1,	-1,	10,	37,	4,	24,	-1,	46,	34,	-1,	41,	63,	-1,	-1,	17,	-1,	62,	-1,	44,	-1,	64,	22,	-1,	47,	57,	-1,	-1,	-1,	30,	58,	56,	39,	-1,	52,	-1|
33,	58,	-1,	36,	38,	-1,	-1,	-1,	56,	4,	52,	13,	59,	-1,	-1,	-1,	-1,	16,	-1,	-1,	10,	-1,	40,	29,	-1,	45,	51,	46,	-1,	27,	-1,	53,	-1,	-1,	48,	8,	9,	-1,	-1,	26,	49,	21,	-1,	-1,	-1,	12,	-1,	2,	-1,	50,	7,	3,	31,	-1,	18,	-1,	6,	-1,	20,	-1,	28,	34,	64,	54|
15,	-1,	28,	-1,	22,	-1,	-1,	-1,	-1,	-1,	32,	41,	46,	21,	62,	10,	61,	52,	3,	6,	20,	35,	-1,	47,	13,	26,	57,	-1,	31,	64,	37,	-1,	-1,	-1,	53,	43,	16,	-1,	12,	-1,	8,	-1,	24,	-1,	-1,	-1,	-1,	-1,	9,	-1,	54,	-1,	-1,	-1,	30,	60,	-1,	40,	63,	-1,	4,	-1,	36,	-1|
-1,	-1,	-1,	-1,	-1,	12,	-1,	4,	-1,	30,	-1,	57,	37,	-1,	-1,	51,	-1,	-1,	-1,	-1,	-1,	49,	-1,	50,	-1,	-1,	-1,	44,	-1,	-1,	2,	-1,	18,	20,	-1,	-1,	-1,	-1,	62,	36,	-1,	3,	58,	-1,	26,	33,	61,	59,	45,	-1,	-1,	-1,	35,	25,	-1,	-1,	-1,	-1,	-1,	-1,	-1,	-1,	43,	41|
-1,	-1,	-1,	43,	47,	40,	-1,	-1,	-1,	-1,	26,	34,	35,	-1,	-1,	38,	57,	-1,	60,	-1,	1,	-1,	46,	37,	50,	17,	3,	16,	-1,	14,	5,	41,	-1,	27,	-1,	-1,	-1,	19,	13,	32,	56,	-1,	4,	25,	54,	52,	20,	39,	51,	10,	44,	-1,	58,	62,	28,	-1,	-1,	-1,	-1,	9,	-1,	7,	59,	-1|
30,	18,	34,	-1,	-1,	6,	8,	-1,	29,	-1,	61,	-1,	16,	28,	64,	63,	-1,	-1,	-1,	41,	-1,	7,	32,	-1,	49,	-1,	-1,	35,	58,	19,	1,	40,	-1,	39,	-1,	-1,	52,	-1,	10,	23,	43,	-1,	45,	-1,	36,	-1,	-1,	-1,	-1,	-1,	46,	-1,	-1,	-1,	5,	-1,	47,	-1,	12,	48,	-1,	-1,	57,	27|
7,	-1,	-1,	37,	41,	64,	13,	60,	33,	49,	-1,	9,	12,	-1,	1,	6,	18,	42,	34,	-1,	-1,	59,	24,	54,	21,	-1,	48,	-1,	36,	-1,	-1,	-1,	-1,	-1,	-1,	58,	47,	63,	-1,	-1,	22,	-1,	16,	-1,	29,	-1,	-1,	35,	55,	38,	2,	4,	-1,	19,	-1,	17,	-1,	-1,	5,	26,	-1,	-1,	53,	-1|
-1,	40,	-1,	-1,	2,	-1,	1,	-1,	-1,	-1,	-1,	20,	-1,	-1,	30,	37,	9,	44,	-1,	59,	-1,	58,	-1,	-1,	48,	-1,	-1,	47,	-1,	-1,	56,	11,	-1,	49,	-1,	51,	41,	-1,	-1,	-1,	39,	-1,	-1,	60,	3,	-1,	16,	33,	-1,	36,	14,	-1,	-1,	-1,	-1,	31,	-1,	10,	-1,	6,	-1,	-1,	18,	-1|
49,	-1,	-1,	-1,	-1,	-1,	-1,	-1,	53,	5,	-1,	64,	-1,	32,	21,	46,	54,	12,	-1,	-1,	-1,	27,	11,	17,	39,	34,	-1,	-1,	-1,	-1,	33,	6,	44,	60,	-1,	29,	-1,	-1,	59,	-1,	38,	19,	-1,	-1,	55,	45,	56,	48,	37,	28,	9,	51,	1,	13,	62,	15,	43,	-1,	-1,	-1,	36,	-1,	-1,	26|
11,	-1,	47,	58,	19,	-1,	28,	30,	-1,	-1,	39,	-1,	26,	4,	-1,	-1,	43,	-1,	49,	51,	-1,	15,	-1,	-1,	-1,	59,	-1,	-1,	-1,	-1,	-1,	-1,	1,	-1,	-1,	-1,	12,	20,	-1,	18,	-1,	2,	7,	21,	-1,	-1,	10,	-1,	-1,	-1,	-1,	-1,	61,	-1,	29,	46,	-1,	-1,	-1,	-1,	-1,	-1,	-1,	-1|
-1,	34,	17,	12,	-1,	-1,	60,	-1,	-1,	-1,	59,	16,	50,	-1,	3,	-1,	-1,	32,	-1,	53,	24,	52,	36,	38,	-1,	-1,	-1,	-1,	18,	-1,	-1,	-1,	-1,	33,	-1,	62,	-1,	56,	5,	13,	20,	-1,	43,	64,	15,	29,	23,	-1,	2,	-1,	58,	-1,	-1,	8,	-1,	-1,	-1,	4,	9,	-1,	49,	45,	40,	-1|
18,	-1,	-1,	33,	-1,	15,	-1,	-1,	60,	35,	-1,	-1,	-1,	36,	2,	-1,	20,	-1,	56,	-1,	16,	-1,	1,	40,	-1,	3,	63,	31,	14,	-1,	-1,	21,	-1,	38,	-1,	26,	61,	-1,	22,	53,	-1,	13,	-1,	-1,	62,	8,	-1,	-1,	-1,	43,	34,	-1,	5,	-1,	45,	7,	37,	-1,	-1,	-1,	-1,	41,	-1,	-1|
62,	23,	-1,	-1,	-1,	-1,	26,	-1,	-1,	56,	-1,	48,	49,	-1,	33,	-1,	-1,	-1,	-1,	-1,	63,	13,	-1,	3,	4,	43,	-1,	-1,	-1,	-1,	-1,	-1,	24,	-1,	-1,	-1,	-1,	11,	-1,	-1,	1,	-1,	25,	5,	-1,	-1,	44,	-1,	-1,	-1,	47,	12,	30,	-1,	-1,	18,	-1,	-1,	-1,	-1,	34,	8,	-1,	-1|
-1,	-1,	44,	53,	45,	4,	-1,	48,	63,	-1,	15,	-1,	-1,	10,	7,	-1,	34,	18,	-1,	2,	62,	39,	-1,	-1,	52,	-1,	-1,	-1,	-1,	-1,	26,	12,	31,	-1,	64,	9,	8,	-1,	-1,	16,	36,	-1,	42,	47,	61,	22,	-1,	-1,	60,	40,	19,	-1,	20,	33,	17,	-1,	14,	3,	-1,	57,	13,	-1,	-1,	21|
24,	5,	7,	-1,	-1,	-1,	37,	-1,	-1,	-1,	-1,	-1,	-1,	-1,	44,	29,	-1,	-1,	-1,	22,	6,	-1,	-1,	26,	-1,	-1,	-1,	36,	60,	1,	64,	-1,	-1,	-1,	-1,	-1,	-1,	39,	57,	2,	-1,	4,	46,	30,	58,	-1,	35,	34,	32,	-1,	-1,	-1,	-1,	-1,	-1,	56,	-1,	-1,	-1,	28,	-1,	62,	15,	52|
13,	-1,	5,	34,	18,	-1,	-1,	-1,	-1,	23,	-1,	4,	-1,	-1,	-1,	26,	-1,	-1,	-1,	50,	53,	56,	44,	15,	33,	48,	-1,	-1,	-1,	-1,	22,	-1,	54,	-1,	-1,	39,	-1,	47,	-1,	-1,	-1,	57,	-1,	-1,	-1,	28,	-1,	-1,	-1,	-1,	59,	31,	-1,	20,	-1,	-1,	-1,	-1,	62,	16,	-1,	29,	-1,	-1|
-1,	17,	-1,	-1,	-1,	14,	46,	-1,	6,	-1,	37,	-1,	21,	-1,	-1,	-1,	40,	2,	-1,	-1,	-1,	22,	3,	19,	47,	44,	-1,	25,	-1,	-1,	15,	1,	-1,	53,	63,	33,	-1,	32,	58,	57,	7,	43,	50,	-1,	64,	-1,	-1,	-1,	38,	23,	62,	49,	-1,	28,	24,	45,	-1,	-1,	-1,	-1,	52,	-1,	48,	-1|
55,	32,	-1,	-1,	1,	-1,	-1,	37,	50,	-1,	8,	59,	3,	-1,	27,	-1,	-1,	23,	17,	21,	14,	62,	-1,	-1,	45,	6,	53,	51,	57,	35,	29,	63,	-1,	-1,	38,	-1,	64,	10,	-1,	7,	-1,	-1,	-1,	39,	46,	56,	-1,	-1,	16,	19,	-1,	-1,	-1,	-1,	2,	43,	61,	15,	-1,	40,	47,	26,	31,	-1|
-1,	15,	40,	-1,	61,	-1,	-1,	-1,	34,	-1,	-1,	-1,	-1,	49,	-1,	-1,	35,	13,	18,	-1,	7,	5,	-1,	31,	2,	-1,	-1,	-1,	-1,	-1,	10,	3,	60,	-1,	21,	-1,	26,	-1,	-1,	62,	51,	22,	-1,	12,	-1,	16,	38,	-1,	-1,	-1,	-1,	33,	-1,	-1,	-1,	-1,	-1,	-1,	54,	-1,	-1,	57,	14,	37|
41,	-1,	54,	64,	-1,	-1,	-1,	31,	51,	-1,	60,	-1,	-1,	-1,	-1,	-1,	30,	-1,	-1,	20,	58,	33,	47,	-1,	61,	-1,	-1,	-1,	26,	-1,	28,	62,	4,	43,	-1,	25,	-1,	-1,	-1,	37,	45,	-1,	40,	15,	-1,	23,	-1,	1,	46,	29,	-1,	-1,	34,	-1,	-1,	-1,	7,	-1,	-1,	36,	10,	-1,	11,	-1|
48,	-1,	-1,	47,	-1,	-1,	45,	39,	-1,	-1,	-1,	22,	52,	-1,	-1,	20,	63,	-1,	-1,	-1,	-1,	54,	-1,	-1,	-1,	-1,	-1,	19,	-1,	56,	-1,	-1,	-1,	12,	6,	30,	-1,	-1,	40,	-1,	-1,	9,	-1,	-1,	49,	21,	58,	37,	27,	15,	4,	-1,	-1,	1,	-1,	-1,	17,	18,	2,	42,	43,	28,	51,	38|
-1,	-1,	53,	2,	-1,	62,	-1,	-1,	38,	46,	47,	32,	-1,	-1,	28,	-1,	10,	39,	57,	37,	-1,	-1,	60,	-1,	59,	21,	17,	-1,	50,	-1,	-1,	9,	-1,	-1,	-1,	-1,	42,	16,	29,	51,	-1,	31,	33,	-1,	6,	4,	63,	19,	-1,	61,	48,	14,	25,	-1,	-1,	-1,	-1,	-1,	24,	-1,	1,	49,	-1,	22|
57,	-1,	-1,	-1,	-1,	28,	27,	-1,	-1,	43,	-1,	-1,	39,	55,	-1,	-1,	38,	-1,	-1,	-1,	-1,	41,	-1,	-1,	-1,	-1,	-1,	-1,	-1,	37,	-1,	14,	-1,	9,	59,	22,	-1,	13,	-1,	1,	-1,	36,	-1,	48,	20,	-1,	25,	-1,	-1,	17,	8,	47,	18,	30,	-1,	50,	63,	64,	34,	-1,	-1,	-1,	-1,	56|
-1,	-1,	-1,	60,	10,	55,	40,	7,	-1,	9,	3,	28,	38,	30,	39,	2,	-1,	-1,	23,	44,	-1,	-1,	-1,	45,	32,	-1,	-1,	-1,	-1,	15,	54,	-1,	34,	-1,	13,	-1,	-1,	8,	-1,	19,	4,	-1,	12,	20,	48,	1,	-1,	-1,	-1,	42,	35,	-1,	-1,	17,	43,	49,	53,	24,	51,	-1,	29,	-1,	-1,	-1|
38,	64,	57,	-1,	9,	-1,	29,	-1,	-1,	-1,	-1,	36,	63,	-1,	42,	43,	-1,	-1,	-1,	-1,	28,	-1,	-1,	-1,	-1,	-1,	35,	8,	-1,	23,	40,	-1,	10,	22,	1,	49,	2,	12,	-1,	55,	-1,	-1,	14,	18,	39,	5,	19,	-1,	-1,	-1,	-1,	-1,	-1,	47,	51,	53,	52,	-1,	4,	34,	-1,	-1,	-1,	-1|
-1,	-1,	-1,	28,	-1,	-1,	-1,	-1,	-1,	-1,	-1,	-1,	-1,	37,	-1,	35,	60,	-1,	-1,	11,	-1,	20,	-1,	6,	38,	-1,	56,	-1,	-1,	-1,	39,	-1,	16,	36,	33,	59,	-1,	-1,	-1,	-1,	40,	-1,	2,	45,	51,	-1,	-1,	-1,	-1,	-1,	1,	24,	9,	-1,	-1,	-1,	41,	-1,	-1,	61,	32,	-1,	-1,	-1|
-1,	-1,	-1,	-1,	49,	-1,	14,	59,	47,	6,	-1,	-1,	-1,	33,	34,	18,	-1,	22,	39,	-1,	-1,	-1,	27,	2,	1,	-1,	24,	52,	-1,	4,	-1,	-1,	30,	-1,	23,	-1,	-1,	-1,	-1,	44,	-1,	55,	-1,	-1,	25,	36,	-1,	11,	-1,	46,	-1,	13,	-1,	-1,	10,	61,	-1,	45,	-1,	17,	-1,	-1,	-1,	-1|
-1,	42,	36,	-1,	-1,	24,	-1,	53,	-1,	60,	16,	-1,	45,	7,	61,	-1,	-1,	-1,	12,	48,	54,	-1,	-1,	13,	37,	-1,	18,	-1,	21,	-1,	57,	49,	43,	-1,	40,	-1,	4,	3,	-1,	-1,	-1,	34,	-1,	62,	32,	63,	52,	56,	28,	25,	-1,	-1,	33,	-1,	-1,	2,	-1,	38,	-1,	35,	19,	-1,	8,	-1|
-1,	-1,	-1,	-1,	-1,	52,	-1,	-1,	12,	-1,	-1,	62,	-1,	-1,	-1,	-1,	31,	33,	16,	-1,	-1,	-1,	-1,	-1,	-1,	-1,	-1,	-1,	51,	-1,	-1,	44,	-1,	29,	-1,	53,	24,	46,	-1,	9,	59,	-1,	61,	37,	35,	-1,	-1,	-1,	-1,	32,	21,	-1,	-1,	27,	-1,	39,	-1,	-1,	56,	-1,	-1,	-1,	23,	49|
-1,	-1,	33,	61,	-1,	-1,	20,	54,	-1,	-1,	51,	-1,	-1,	52,	23,	41,	-1,	15,	35,	-1,	18,	40,	-1,	4,	-1,	-1,	2,	12,	-1,	-1,	-1,	-1,	-1,	-1,	37,	5,	-1,	-1,	48,	-1,	9,	16,	13,	27,	31,	24,	-1,	-1,	34,	-1,	56,	-1,	19,	60,	38,	-1,	26,	47,	-1,	46,	-1,	39,	50,	-1|
-1,	-1,	62,	-1,	4,	45,	-1,	-1,	8,	-1,	14,	-1,	-1,	-1,	-1,	-1,	-1,	-1,	1,	-1,	-1,	46,	63,	-1,	55,	-1,	34,	-1,	9,	25,	-1,	29,	58,	-1,	11,	-1,	-1,	31,	20,	-1,	-1,	38,	17,	-1,	41,	-1,	-1,	28,	-1,	-1,	-1,	-1,	-1,	40,	64,	59,	-1,	42,	-1,	44,	2,	-1,	-1,	16|
64,	-1,	41,	21,	7,	54,	-1,	49,	24,	48,	29,	61,	44,	-1,	-1,	59,	-1,	-1,	33,	-1,	-1,	55,	-1,	14,	-1,	-1,	46,	22,	23,	-1,	6,	8,	52,	51,	26,	-1,	11,	-1,	42,	12,	-1,	-1,	-1,	58,	-1,	-1,	-1,	-1,	-1,	35,	30,	-1,	28,	-1,	15,	5,	-1,	2,	-1,	13,	45,	-1,	-1,	-1|
-1,	10,	-1,	-1,	-1,	-1,	12,	-1,	-1,	-1,	21,	39,	51,	46,	-1,	-1,	-1,	-1,	-1,	-1,	38,	-1,	34,	58,	-1,	-1,	-1,	-1,	-1,	-1,	62,	4,	55,	-1,	35,	13,	57,	6,	9,	45,	5,	-1,	22,	3,	19,	-1,	15,	63,	17,	-1,	64,	60,	-1,	-1,	50,	-1,	-1,	-1,	28,	49,	-1,	-1,	26,	-1|
-1,	-1,	-1,	26,	-1,	36,	-1,	29,	14,	40,	-1,	-1,	28,	-1,	-1,	27,	-1,	64,	50,	-1,	-1,	-1,	15,	-1,	12,	-1,	21,	39,	-1,	-1,	34,	-1,	17,	-1,	-1,	16,	-1,	44,	3,	22,	-1,	-1,	31,	51,	23,	-1,	45,	60,	-1,	47,	-1,	-1,	8,	-1,	-1,	42,	-1,	-1,	46,	-1,	-1,	37,	-1,	-1|
31,	60,	4,	17,	44,	38,	-1,	-1,	-1,	62,	-1,	-1,	-1,	-1,	-1,	13,	-1,	7,	5,	42,	12,	2,	51,	-1,	40,	-1,	25,	18,	-1,	-1,	41,	-1,	-1,	-1,	-1,	-1,	-1,	-1,	33,	34,	-1,	-1,	9,	-1,	47,	11,	6,	64,	14,	-1,	-1,	45,	-1,	55,	-1,	37,	-1,	-1,	-1,	58,	-1,	-1,	21,	57|
45,	62,	11,	46,	6,	39,	-1,	8,	16,	25,	-1,	38,	-1,	64,	-1,	-1,	37,	59,	-1,	18,	41,	48,	31,	1,	-1,	-1,	-1,	-1,	61,	-1,	17,	2,	-1,	54,	-1,	63,	60,	-1,	-1,	-1,	28,	-1,	-1,	29,	43,	-1,	42,	-1,	-1,	-1,	-1,	-1,	57,	24,	-1,	22,	56,	-1,	7,	12,	55,	-1,	-1,	-1|
-1,	52,	-1,	55,	25,	-1,	51,	-1,	-1,	33,	-1,	17,	-1,	26,	8,	45,	11,	-1,	22,	46,	-1,	-1,	61,	39,	64,	-1,	59,	-1,	19,	-1,	-1,	-1,	28,	-1,	41,	-1,	38,	62,	31,	48,	21,	-1,	49,	-1,	-1,	53,	-1,	57,	58,	13,	43,	-1,	3,	-1,	16,	-1,	-1,	-1,	-1,	-1,	23,	36,	42,	15|
-1,	-1,	-1,	19,	-1,	-1,	-1,	34,	-1,	63,	41,	-1,	-1,	-1,	-1,	7,	-1,	-1,	-1,	-1,	3,	-1,	6,	28,	35,	20,	-1,	45,	32,	-1,	42,	-1,	49,	-1,	8,	-1,	-1,	37,	27,	64,	-1,	-1,	-1,	-1,	33,	54,	14,	17,	31,	-1,	-1,	18,	52,	12,	-1,	1,	-1,	16,	22,	-1,	9,	-1,	-1,	61|
28,	14,	35,	15,	-1,	-1,	-1,	-1,	-1,	-1,	-1,	-1,	56,	42,	37,	-1,	-1,	20,	40,	10,	-1,	-1,	49,	44,	26,	1,	47,	-1,	-1,	33,	-1,	55,	-1,	-1,	-1,	24,	-1,	-1,	-1,	25,	12,	-1,	59,	34,	38,	-1,	27,	-1,	19,	9,	-1,	62,	-1,	-1,	-1,	-1,	39,	41,	52,	-1,	30,	64,	17,	31|];
