sudoku-ls/benchmarks_LEQ/INST_64x64/50/inst64x64_50_24.txt
8
1
10	30	12	-1	-1	16	7	-1	-1	39	-1	-1	-1	-1	59	-1	46	5	-1	-1	2	29	38	60	-1	15	32	11	-1	47	25	-1	40	55	62	-1	-1	-1	44	35	61	49	-1	53	-1	64	33	-1	6	-1	24	-1	51	-1	-1	-1	31	36	-1	-1	-1	54	-1	-1
-1	38	-1	32	27	33	36	19	15	-1	44	18	6	60	-1	-1	56	-1	-1	-1	-1	-1	37	51	8	-1	7	48	-1	-1	45	58	13	64	30	-1	53	52	21	31	-1	-1	23	-1	-1	-1	4	-1	-1	-1	-1	-1	54	-1	-1	28	-1	12	57	-1	20	-1	-1	63
6	-1	60	-1	53	-1	-1	-1	-1	14	-1	46	-1	-1	-1	4	15	31	13	-1	-1	9	20	16	-1	55	-1	1	-1	59	-1	27	11	47	50	-1	63	18	39	24	19	29	48	28	7	-1	-1	-1	43	12	40	23	-1	64	-1	30	-1	26	-1	-1	-1	-1	38	3
-1	-1	-1	13	37	35	64	11	-1	-1	63	-1	40	-1	-1	62	-1	10	55	26	49	28	39	27	-1	54	14	-1	52	-1	30	-1	-1	42	58	-1	15	59	7	56	-1	-1	-1	-1	-1	-1	24	-1	25	1	53	-1	-1	4	36	-1	18	43	45	2	-1	-1	33	29
-1	55	-1	40	3	47	23	-1	-1	61	-1	31	-1	9	38	52	-1	-1	-1	-1	44	-1	-1	57	-1	53	-1	62	46	-1	4	37	33	28	-1	-1	-1	49	43	-1	11	-1	-1	-1	-1	35	26	-1	48	8	18	-1	22	-1	-1	10	60	-1	-1	27	58	56	-1	-1
8	57	21	-1	-1	29	-1	1	-1	10	33	-1	47	35	-1	-1	23	-1	61	-1	43	3	-1	-1	18	38	13	34	39	-1	-1	36	-1	-1	-1	-1	25	-1	26	20	46	56	5	52	-1	-1	-1	-1	42	62	-1	-1	-1	-1	44	-1	28	-1	15	24	-1	16	-1	-1
9	-1	-1	-1	-1	-1	-1	-1	37	-1	27	-1	-1	3	43	-1	4	-1	-1	-1	-1	25	35	48	-1	60	31	6	-1	-1	-1	33	-1	1	-1	61	-1	-1	-1	5	-1	-1	18	8	59	39	-1	38	63	20	-1	19	-1	16	13	29	-1	-1	-1	52	-1	30	7	-1
20	-1	-1	24	-1	-1	-1	-1	-1	-1	48	-1	-1	-1	53	54	22	-1	-1	-1	-1	17	18	30	29	-1	-1	23	64	26	63	-1	8	-1	-1	12	37	9	19	-1	55	15	-1	43	-1	-1	-1	-1	61	31	11	52	60	-1	27	-1	35	-1	-1	-1	-1	-1	10	32
-1	-1	19	18	17	-1	38	-1	39	-1	-1	-1	-1	25	5	55	58	51	-1	-1	8	10	45	-1	3	-1	-1	-1	-1	43	60	13	62	-1	12	-1	-1	-1	-1	-1	-1	33	-1	-1	-1	46	-1	-1	54	-1	16	-1	-1	-1	31	63	57	-1	61	-1	24	22	32	-1
-1	-1	-1	35	12	-1	33	-1	49	-1	56	7	43	53	-1	-1	19	63	30	52	-1	-1	64	32	-1	-1	-1	-1	-1	-1	-1	-1	-1	57	-1	-1	-1	-1	6	11	16	58	-1	-1	14	-1	8	3	-1	-1	-1	9	37	-1	59	-1	5	17	26	-1	31	13	27	2
-1	21	-1	57	-1	60	2	-1	-1	59	9	-1	64	41	-1	-1	-1	35	62	55	25	-1	-1	-1	-1	19	-1	-1	1	53	-1	-1	51	-1	-1	-1	3	29	-1	-1	17	61	-1	42	-1	-1	39	12	-1	7	-1	56	-1	-1	-1	-1	36	37	-1	8	50	-1	-1	46
29	-1	-1	-1	40	8	55	58	13	-1	11	2	10	51	-1	-1	44	-1	-1	-1	-1	24	-1	34	-1	12	39	33	56	-1	-1	59	-1	-1	16	37	-1	-1	4	-1	64	60	15	1	30	-1	49	45	41	-1	28	-1	17	43	19	35	25	-1	-1	-1	-1	47	-1	42
-1	47	-1	14	63	23	-1	64	45	-1	58	-1	61	44	19	48	-1	-1	46	-1	-1	1	-1	-1	-1	37	27	41	-1	-1	8	-1	-1	-1	9	-1	-1	30	2	-1	-1	20	62	-1	-1	31	-1	24	-1	-1	5	32	12	36	-1	26	51	-1	40	39	3	-1	-1	43
-1	7	-1	-1	13	-1	39	-1	3	-1	-1	-1	8	-1	36	-1	41	-1	-1	-1	-1	-1	-1	-1	46	5	30	14	28	-1	21	47	26	17	55	18	32	-1	56	-1	50	37	-1	6	-1	-1	2	-1	-1	4	33	-1	24	11	-1	52	49	58	-1	-1	-1	-1	-1	20
-1	-1	31	-1	56	49	61	-1	32	-1	-1	23	-1	-1	-1	-1	-1	40	15	38	37	-1	-1	7	-1	62	42	-1	25	-1	50	-1	-1	-1	47	64	-1	45	41	63	52	51	28	35	22	-1	5	-1	1	-1	-1	8	-1	-1	-1	3	-1	-1	59	-1	-1	-1	29	44
25	44	6	62	-1	30	32	26	35	29	-1	37	-1	-1	4	47	3	11	2	-1	13	-1	-1	53	57	52	64	17	45	-1	-1	51	-1	-1	-1	-1	-1	24	-1	-1	34	40	63	-1	-1	-1	-1	-1	10	-1	55	-1	38	14	-1	-1	-1	-1	-1	33	56	-1	-1	28
51	-1	24	-1	64	48	62	23	25	34	-1	-1	11	-1	20	50	-1	36	4	-1	-1	57	-1	12	-1	-1	-1	21	55	46	-1	-1	56	-1	39	-1	1	-1	16	-1	-1	-1	-1	-1	-1	-1	-1	-1	-1	-1	-1	38	-1	35	-1	-1	58	-1	18	43	6	-1	-1	40
-1	-1	-1	4	60	-1	-1	-1	-1	-1	-1	-1	22	54	35	12	64	-1	-1	63	-1	44	-1	62	5	-1	43	-1	-1	45	-1	-1	-1	-1	29	-1	13	17	-1	33	-1	28	-1	2	21	14	31	6	39	52	41	34	40	18	-1	11	19	-1	3	38	-1	27	-1	-1
21	37	39	30	-1	-1	18	12	48	19	55	51	-1	-1	13	36	27	-1	-1	-1	-1	31	-1	-1	58	-1	-1	53	-1	17	-1	-1	-1	-1	-1	-1	35	-1	-1	-1	-1	5	34	7	60	-1	-1	16	-1	26	-1	28	43	-1	-1	54	-1	-1	-1	-1	41	-1	-1	-1
-1	29	63	8	-1	-1	-1	40	-1	58	-1	45	32	-1	16	-1	-1	46	59	54	-1	-1	42	49	51	7	-1	60	6	-1	18	-1	12	31	-1	-1	-1	41	-1	47	-1	-1	26	-1	52	38	-1	62	3	44	-1	-1	23	15	-1	-1	9	-1	-1	22	17	24	13	36
52	59	2	3	20	-1	-1	36	43	-1	-1	33	14	62	-1	56	39	-1	38	35	-1	26	22	18	-1	-1	1	-1	44	-1	24	34	21	-1	51	-1	48	-1	49	-1	-1	-1	64	46	12	-1	-1	55	-1	-1	60	63	6	50	-1	-1	30	-1	16	-1	-1	-1	28	-1
22	13	-1	-1	-1	-1	-1	6	-1	3	-1	-1	-1	-1	-1	39	-1	28	-1	40	-1	-1	-1	-1	-1	-1	33	59	-1	48	-1	38	-1	-1	-1	-1	27	5	-1	43	47	53	35	61	4	41	-1	-1	-1	-1	-1	17	-1	-1	46	-1	34	-1	-1	-1	15	-1	-1	-1
-1	-1	38	-1	-1	9	42	45	-1	-1	46	-1	-1	-1	57	44	-1	-1	-1	5	-1	-1	-1	20	-1	47	4	10	40	-1	-1	22	-1	11	2	-1	30	60	18	-1	-1	-1	1	19	63	-1	29	-1	-1	-1	-1	58	-1	-1	56	36	62	52	-1	-1	35	-1	-1	-1
43	28	61	56	-1	-1	-1	33	-1	-1	31	52	-1	-1	47	9	29	24	-1	60	-1	-1	30	-1	36	-1	26	-1	13	49	3	35	14	-1	-1	15	44	-1	53	-1	23	-1	11	40	50	-1	18	58	-1	55	-1	-1	64	-1	-1	19	-1	-1	25	54	48	10	46	-1
-1	51	-1	52	-1	-1	35	57	17	-1	54	44	18	-1	-1	5	12	-1	-1	58	-1	-1	2	23	62	-1	-1	-1	8	11	55	39	-1	-1	7	-1	49	33	-1	30	-1	41	-1	31	28	10	47	40	-1	-1	32	-1	-1	56	20	34	-1	-1	-1	19	-1	3	1	13
2	50	9	27	-1	42	49	-1	11	-1	-1	14	23	-1	25	-1	-1	-1	19	-1	-1	51	-1	43	-1	18	-1	61	-1	54	-1	-1	-1	4	-1	-1	-1	34	28	41	63	-1	55	17	-1	62	53	44	-1	-1	-1	40	-1	-1	21	-1	-1	30	58	56	-1	32	52	-1
33	58	-1	36	38	-1	44	32	-1	-1	52	-1	-1	-1	-1	60	-1	-1	63	14	10	-1	40	29	-1	45	-1	-1	-1	27	43	53	22	15	-1	8	-1	-1	1	-1	-1	21	-1	57	5	-1	-1	2	-1	-1	7	3	-1	-1	18	41	6	-1	-1	62	-1	-1	-1	54
-1	19	28	39	-1	-1	-1	5	-1	55	-1	41	46	-1	62	-1	61	-1	-1	-1	-1	-1	33	-1	13	26	-1	56	-1	64	-1	7	-1	44	53	43	-1	51	12	17	8	18	24	-1	34	27	11	-1	-1	14	-1	-1	49	29	30	60	-1	-1	63	-1	-1	-1	-1	25
56	-1	-1	1	23	-1	-1	-1	-1	30	7	-1	-1	47	-1	51	-1	9	28	64	39	-1	53	-1	34	-1	29	-1	-1	63	2	24	18	-1	5	60	55	-1	62	-1	48	-1	58	-1	-1	-1	61	59	45	-1	52	27	35	-1	6	-1	-1	22	8	-1	-1	-1	-1	-1
-1	45	55	43	47	40	-1	-1	-1	-1	26	34	35	2	48	-1	57	-1	60	-1	1	-1	46	-1	-1	-1	-1	-1	-1	14	-1	-1	6	27	31	-1	-1	-1	-1	32	56	-1	4	-1	54	52	20	39	51	-1	44	36	58	-1	-1	-1	-1	21	49	9	-1	7	-1	-1
-1	18	34	11	62	-1	-1	24	-1	15	61	3	-1	-1	64	63	21	17	-1	-1	-1	-1	-1	56	-1	22	20	35	58	19	-1	-1	-1	39	54	2	52	-1	-1	-1	43	-1	-1	-1	-1	-1	-1	9	-1	-1	-1	42	59	37	-1	-1	47	-1	12	-1	-1	-1	57	27
7	-1	10	-1	41	64	13	60	33	-1	43	9	-1	-1	-1	-1	18	42	34	-1	-1	59	-1	-1	-1	23	-1	28	36	52	32	25	57	-1	3	58	-1	63	-1	-1	22	30	-1	-1	-1	15	46	35	55	38	2	-1	-1	-1	-1	-1	-1	50	5	-1	61	-1	-1	-1
61	-1	29	-1	2	-1	-1	55	-1	12	25	20	62	-1	-1	37	-1	44	-1	59	-1	-1	-1	-1	48	-1	8	-1	15	32	-1	11	45	49	-1	51	-1	-1	-1	-1	39	54	-1	-1	3	17	16	-1	22	-1	-1	26	4	-1	-1	31	46	-1	53	6	38	-1	-1	-1
49	-1	3	16	-1	22	-1	35	53	-1	18	64	-1	32	21	46	54	12	-1	25	-1	-1	-1	17	39	-1	40	-1	10	50	-1	-1	44	-1	52	29	-1	-1	59	4	-1	-1	41	-1	-1	45	56	48	-1	28	-1	51	1	13	-1	15	43	-1	23	47	-1	-1	-1	-1
-1	-1	-1	-1	19	-1	-1	30	31	45	-1	-1	26	-1	9	34	43	60	-1	51	-1	15	-1	35	53	59	-1	57	-1	13	-1	23	-1	-1	36	-1	12	20	17	18	-1	2	-1	21	-1	40	10	-1	-1	-1	-1	64	61	-1	-1	-1	44	-1	-1	-1	16	25	-1	48
14	-1	-1	-1	31	-1	-1	-1	61	51	59	-1	-1	-1	3	-1	47	-1	-1	-1	24	52	36	-1	-1	-1	37	-1	-1	22	-1	28	35	-1	-1	-1	10	56	5	-1	20	63	-1	64	15	-1	-1	26	-1	-1	-1	48	11	8	55	-1	54	-1	9	-1	-1	45	-1	-1
18	-1	27	-1	-1	15	25	52	60	-1	-1	47	-1	36	2	28	-1	-1	-1	29	-1	-1	1	-1	17	3	63	31	-1	51	46	21	48	38	-1	26	61	58	22	-1	-1	-1	6	49	-1	8	-1	-1	44	43	34	-1	-1	10	-1	-1	-1	11	-1	-1	-1	-1	-1	30
-1	-1	64	-1	36	-1	-1	46	40	56	38	-1	-1	22	-1	19	-1	-1	-1	28	-1	-1	7	-1	-1	-1	55	-1	-1	41	58	61	-1	37	-1	21	-1	11	-1	54	-1	-1	25	5	-1	9	-1	-1	35	57	47	12	-1	53	52	-1	-1	-1	-1	29	34	8	-1	-1
54	43	44	-1	-1	4	6	48	-1	1	-1	27	55	-1	-1	-1	34	-1	37	2	-1	39	-1	-1	52	35	-1	29	-1	5	-1	12	31	30	64	-1	-1	25	32	16	-1	-1	42	-1	-1	22	28	-1	60	40	-1	-1	20	33	-1	-1	-1	3	-1	57	-1	59	56	-1
-1	-1	-1	-1	-1	-1	-1	20	-1	-1	13	11	-1	-1	-1	29	-1	55	-1	-1	6	61	-1	-1	19	-1	45	-1	-1	-1	64	-1	-1	63	43	40	-1	39	-1	2	-1	4	-1	-1	-1	-1	-1	-1	32	16	49	25	-1	3	-1	56	-1	31	-1	28	12	-1	-1	-1
-1	63	-1	34	18	7	21	38	-1	23	35	4	-1	-1	-1	26	49	6	-1	-1	-1	56	44	-1	33	-1	41	40	-1	30	22	-1	54	-1	61	-1	45	47	-1	46	-1	-1	-1	-1	24	28	17	14	36	-1	-1	-1	-1	20	60	51	-1	25	62	-1	-1	29	-1	-1
60	-1	-1	-1	16	-1	-1	42	-1	-1	-1	-1	21	29	41	11	-1	2	-1	-1	-1	22	3	-1	47	44	-1	25	27	18	15	-1	-1	-1	-1	-1	-1	-1	-1	57	-1	-1	50	-1	-1	-1	34	-1	-1	23	-1	-1	-1	28	-1	45	-1	39	13	-1	-1	-1	48	-1
55	32	30	49	1	20	-1	-1	-1	-1	8	59	-1	-1	-1	33	24	23	-1	-1	14	62	28	25	-1	-1	-1	-1	57	-1	29	-1	41	-1	38	-1	-1	-1	11	-1	13	52	44	-1	46	56	54	-1	16	19	-1	-1	-1	9	2	-1	-1	15	-1	-1	-1	26	31	4
-1	15	-1	29	-1	-1	-1	9	34	44	45	-1	48	49	-1	-1	-1	13	18	1	7	5	43	-1	2	-1	-1	24	20	55	10	3	-1	8	21	28	-1	36	23	-1	51	-1	-1	12	42	16	38	47	11	-1	39	-1	56	63	41	6	-1	-1	-1	59	53	57	-1	37
-1	6	54	-1	24	3	52	31	51	2	-1	63	-1	-1	-1	16	-1	-1	-1	-1	-1	33	47	42	-1	-1	-1	38	-1	-1	28	-1	-1	-1	49	-1	17	55	14	37	-1	-1	40	15	-1	23	-1	-1	-1	29	-1	-1	-1	-1	-1	57	7	19	44	-1	10	5	-1	-1
-1	33	-1	-1	26	25	-1	39	57	13	10	22	52	24	14	20	63	29	32	61	-1	-1	59	-1	23	-1	-1	-1	34	-1	11	16	-1	-1	6	-1	-1	-1	-1	-1	-1	-1	53	41	-1	21	-1	37	27	15	-1	-1	44	1	3	-1	-1	18	2	42	-1	28	-1	-1
-1	-1	53	-1	58	62	-1	-1	38	-1	-1	32	-1	-1	-1	-1	-1	-1	57	37	-1	12	60	64	-1	-1	17	5	-1	8	13	9	-1	-1	27	-1	42	16	-1	-1	-1	31	33	-1	6	-1	63	-1	-1	61	48	14	-1	-1	-1	-1	-1	23	-1	20	1	-1	-1	-1
-1	12	23	44	-1	28	27	-1	-1	-1	-1	42	-1	55	-1	-1	38	26	-1	-1	51	-1	52	-1	31	46	-1	-1	-1	37	-1	-1	-1	-1	59	-1	-1	13	-1	1	-1	36	-1	-1	-1	2	-1	-1	-1	17	-1	-1	18	-1	32	-1	63	-1	-1	-1	-1	21	6	-1
58	16	26	-1	-1	-1	40	7	-1	-1	3	-1	38	-1	39	2	59	14	-1	44	-1	-1	-1	-1	32	33	-1	64	-1	15	54	31	34	41	-1	52	21	8	25	-1	-1	-1	-1	20	-1	1	-1	-1	-1	-1	-1	-1	36	-1	-1	-1	53	-1	-1	18	29	-1	-1	-1
-1	64	57	-1	9	56	29	50	-1	17	20	36	63	-1	-1	-1	32	-1	-1	-1	-1	21	41	61	16	13	35	8	3	23	40	46	-1	22	1	-1	-1	-1	-1	55	58	26	-1	18	39	-1	19	15	-1	45	6	44	-1	-1	51	53	52	-1	-1	-1	-1	33	-1	-1
44	25	-1	-1	-1	-1	30	-1	46	-1	22	-1	19	-1	31	-1	60	-1	-1	11	26	-1	-1	6	-1	63	56	42	-1	-1	39	-1	-1	-1	-1	59	-1	-1	47	-1	40	-1	2	45	-1	-1	-1	10	4	48	-1	24	9	52	-1	-1	41	7	-1	61	-1	-1	3	-1
-1	35	-1	-1	49	19	-1	59	47	6	-1	58	53	-1	-1	18	-1	-1	-1	-1	-1	38	-1	-1	-1	-1	24	-1	41	4	-1	60	-1	26	-1	-1	62	15	-1	44	29	-1	-1	-1	-1	36	64	11	5	-1	50	-1	-1	-1	10	61	-1	45	-1	-1	40	-1	12	-1
-1	-1	36	23	-1	-1	47	53	26	-1	-1	55	-1	-1	-1	-1	-1	-1	12	48	-1	-1	9	-1	-1	-1	-1	-1	21	-1	57	49	43	-1	40	-1	4	3	-1	39	-1	-1	-1	62	-1	-1	-1	56	28	25	-1	22	33	-1	14	-1	59	-1	-1	35	-1	-1	8	10
3	2	-1	41	-1	-1	34	-1	-1	64	-1	62	15	-1	-1	40	31	-1	16	-1	55	50	-1	36	14	-1	-1	-1	51	-1	47	-1	-1	-1	-1	53	24	46	-1	9	-1	-1	61	37	35	7	22	-1	-1	-1	21	30	-1	-1	-1	-1	13	28	-1	-1	-1	1	-1	-1
-1	-1	-1	-1	-1	-1	20	54	44	-1	-1	-1	-1	52	23	-1	17	15	35	-1	-1	40	10	4	-1	30	2	-1	59	7	36	-1	42	32	-1	5	-1	57	-1	-1	9	-1	-1	27	-1	-1	-1	-1	34	-1	56	-1	19	-1	38	-1	-1	47	64	46	62	39	-1	-1
12	39	62	-1	4	45	-1	-1	8	32	-1	21	-1	13	-1	49	-1	-1	-1	-1	-1	46	-1	52	55	-1	34	26	-1	-1	-1	-1	-1	-1	11	50	7	31	-1	-1	-1	38	-1	-1	-1	47	-1	-1	18	54	-1	-1	-1	-1	-1	-1	22	-1	36	44	2	-1	30	-1
-1	-1	-1	-1	7	54	3	-1	24	-1	29	61	44	-1	32	59	-1	47	-1	9	17	55	16	14	10	31	46	-1	23	57	6	8	-1	-1	26	-1	-1	43	42	-1	-1	25	-1	-1	40	-1	1	-1	-1	35	30	-1	-1	-1	15	-1	50	-1	19	13	-1	60	-1	-1
-1	-1	37	-1	-1	-1	12	-1	-1	-1	21	-1	51	-1	-1	-1	25	-1	-1	-1	-1	-1	-1	58	-1	-1	-1	-1	11	-1	-1	4	55	-1	35	-1	57	-1	9	-1	5	-1	22	-1	19	30	-1	-1	-1	-1	-1	-1	53	-1	50	-1	29	-1	-1	-1	-1	-1	26	1
-1	48	13	26	30	-1	9	29	14	40	2	35	-1	-1	55	-1	-1	-1	50	43	57	19	15	-1	12	58	-1	-1	-1	38	34	-1	17	-1	-1	-1	-1	44	3	22	-1	62	-1	51	23	-1	45	-1	33	-1	25	-1	8	-1	49	-1	4	5	46	53	-1	37	20	-1
-1	60	-1	17	-1	-1	-1	63	22	62	30	-1	20	-1	-1	13	-1	-1	5	-1	12	-1	51	-1	-1	56	-1	-1	-1	-1	41	-1	-1	-1	-1	1	50	53	-1	34	35	46	9	16	47	11	-1	64	-1	-1	-1	-1	29	-1	-1	-1	3	27	-1	58	54	43	-1	57
-1	62	-1	-1	-1	39	-1	8	-1	25	19	38	5	-1	-1	-1	-1	59	-1	18	-1	-1	31	1	-1	-1	-1	13	-1	3	17	2	-1	-1	10	-1	-1	14	-1	-1	28	44	52	-1	-1	-1	-1	-1	21	-1	-1	20	57	-1	4	22	-1	33	7	12	55	-1	-1	47
40	-1	-1	55	25	-1	-1	47	-1	33	-1	17	-1	26	-1	-1	-1	4	-1	-1	35	-1	61	39	64	-1	-1	37	-1	29	-1	-1	28	-1	41	20	38	-1	-1	48	21	10	49	-1	-1	53	-1	-1	58	-1	43	-1	-1	-1	-1	-1	24	34	6	-1	-1	36	-1	-1
23	-1	-1	-1	-1	-1	-1	34	-1	63	41	10	36	-1	50	-1	62	21	-1	13	3	30	-1	-1	35	20	-1	-1	32	60	42	5	49	-1	-1	-1	58	-1	-1	64	2	24	39	-1	-1	54	14	17	-1	-1	26	-1	-1	-1	40	-1	48	-1	22	-1	-1	38	-1	-1
28	14	35	-1	-1	-1	16	22	54	57	-1	43	56	-1	37	3	-1	20	40	-1	-1	-1	49	-1	-1	-1	47	-1	-1	-1	7	-1	-1	-1	-1	24	36	2	61	25	12	-1	59	34	38	13	-1	-1	19	-1	-1	-1	32	-1	11	-1	39	41	52	-1	-1	-1	-1	31
64 
35 33 62 3
36 49 3 6
47 33 8 46
57 36 11 62
37 53 43 52
4 46 15 22
18 36 33 64
26 16 60 24
45 13 21 28
49 5 31 39
39 42 9 60
30 56 14 20
30 39 52 52
32 44 51 59
56 53 28 1
36 12 24 52
49 54 1 64
47 34 36 29
21 18 14 62
24 35 53 30
1 61 28 14
12 50 11 27
19 20 12 60
27 15 11 16
18 41 2 48
12 19 27 40
52 23 32 14
11 8 50 21
10 29 13 21
22 49 5 9
38 48 63 49
28 11 51 61
3 55 38 15
51 18 61 50
2 52 43 30
25 22 39 41
60 56 18 55
54 33 58 21
47 18 15 55
28 58 36 63
39 52 61 21
50 15 17 46
43 56 61 45
54 32 9 54
61 1 22 54
18 2 47 10
35 3 8 59
45 18 46 1
29 22 54 64
55 63 45 64
40 6 18 19
60 32 44 27
63 2 40 41
47 54 16 63
55 52 46 24
37 19 13 20
20 7 18 26
41 63 64 6
6 58 40 5
50 39 40 29
4 2 12 33
14 11 42 51
12 25 49 62
25 39 7 16
